c colouring generated by benchmark framework
p edge 450 17343
v 1 12
v 2 15
v 3 5
v 4 4
v 5 9
v 6 21
v 7 20
v 8 27
v 9 0
v 10 13
v 11 14
v 12 17
v 13 23
v 14 2
v 15 19
v 16 8
v 17 7
v 18 1
v 19 17
v 20 12
v 21 11
v 22 23
v 23 30
v 24 28
v 25 14
v 26 20
v 27 7
v 28 7
v 29 2
v 30 2
v 31 5
v 32 15
v 33 9
v 34 30
v 35 1
v 36 14
v 37 3
v 38 17
v 39 3
v 40 9
v 41 12
v 42 13
v 43 22
v 44 7
v 45 6
v 46 11
v 47 15
v 48 22
v 49 31
v 50 30
v 51 6
v 52 21
v 53 14
v 54 7
v 55 27
v 56 13
v 57 23
v 58 30
v 59 13
v 60 21
v 61 19
v 62 19
v 63 0
v 64 6
v 65 18
v 66 8
v 67 1
v 68 8
v 69 12
v 70 16
v 71 19
v 72 3
v 73 1
v 74 18
v 75 25
v 76 5
v 77 7
v 78 15
v 79 26
v 80 0
v 81 27
v 82 14
v 83 22
v 84 9
v 85 2
v 86 16
v 87 11
v 88 20
v 89 24
v 90 24
v 91 21
v 92 18
v 93 26
v 94 6
v 95 16
v 96 11
v 97 21
v 98 18
v 99 26
v 100 1
v 101 4
v 102 17
v 103 18
v 104 18
v 105 0
v 106 24
v 107 14
v 108 2
v 109 0
v 110 17
v 111 29
v 112 27
v 113 11
v 114 24
v 115 9
v 116 25
v 117 18
v 118 18
v 119 20
v 120 31
v 121 15
v 122 11
v 123 27
v 124 4
v 125 13
v 126 26
v 127 2
v 128 13
v 129 5
v 130 6
v 131 11
v 132 2
v 133 15
v 134 19
v 135 31
v 136 16
v 137 26
v 138 25
v 139 23
v 140 2
v 141 7
v 142 0
v 143 5
v 144 6
v 145 31
v 146 20
v 147 18
v 148 0
v 149 24
v 150 10
v 151 9
v 152 10
v 153 3
v 154 14
v 155 31
v 156 3
v 157 5
v 158 16
v 159 1
v 160 1
v 161 20
v 162 7
v 163 11
v 164 4
v 165 3
v 166 4
v 167 28
v 168 8
v 169 10
v 170 6
v 171 11
v 172 21
v 173 30
v 174 1
v 175 13
v 176 23
v 177 8
v 178 2
v 179 18
v 180 16
v 181 25
v 182 19
v 183 3
v 184 1
v 185 1
v 186 14
v 187 22
v 188 4
v 189 2
v 190 12
v 191 10
v 192 5
v 193 8
v 194 19
v 195 11
v 196 3
v 197 6
v 198 4
v 199 11
v 200 10
v 201 11
v 202 20
v 203 16
v 204 5
v 205 16
v 206 3
v 207 13
v 208 19
v 209 23
v 210 29
v 211 23
v 212 1
v 213 12
v 214 18
v 215 10
v 216 2
v 217 27
v 218 10
v 219 10
v 220 10
v 221 14
v 222 30
v 223 23
v 224 22
v 225 9
v 226 12
v 227 22
v 228 4
v 229 28
v 230 6
v 231 21
v 232 29
v 233 0
v 234 4
v 235 8
v 236 15
v 237 1
v 238 2
v 239 1
v 240 30
v 241 28
v 242 1
v 243 4
v 244 15
v 245 9
v 246 4
v 247 0
v 248 8
v 249 0
v 250 20
v 251 9
v 252 5
v 253 5
v 254 5
v 255 1
v 256 15
v 257 15
v 258 9
v 259 9
v 260 19
v 261 8
v 262 14
v 263 29
v 264 3
v 265 19
v 266 2
v 267 17
v 268 4
v 269 5
v 270 1
v 271 25
v 272 23
v 273 25
v 274 7
v 275 11
v 276 19
v 277 27
v 278 0
v 279 12
v 280 21
v 281 10
v 282 23
v 283 5
v 284 7
v 285 1
v 286 3
v 287 29
v 288 25
v 289 21
v 290 7
v 291 12
v 292 13
v 293 22
v 294 12
v 295 25
v 296 7
v 297 7
v 298 16
v 299 6
v 300 3
v 301 21
v 302 6
v 303 0
v 304 14
v 305 31
v 306 15
v 307 25
v 308 14
v 309 0
v 310 19
v 311 0
v 312 1
v 313 1
v 314 22
v 315 27
v 316 2
v 317 31
v 318 26
v 319 6
v 320 16
v 321 9
v 322 29
v 323 4
v 324 4
v 325 11
v 326 4
v 327 20
v 328 18
v 329 18
v 330 12
v 331 10
v 332 23
v 333 29
v 334 7
v 335 14
v 336 20
v 337 20
v 338 21
v 339 0
v 340 15
v 341 2
v 342 25
v 343 7
v 344 31
v 345 20
v 346 28
v 347 22
v 348 26
v 349 0
v 350 15
v 351 24
v 352 20
v 353 20
v 354 16
v 355 28
v 356 21
v 357 13
v 358 22
v 359 21
v 360 10
v 361 1
v 362 9
v 363 8
v 364 17
v 365 28
v 366 2
v 367 19
v 368 22
v 369 2
v 370 15
v 371 0
v 372 8
v 373 16
v 374 11
v 375 16
v 376 2
v 377 24
v 378 8
v 379 20
v 380 12
v 381 14
v 382 13
v 383 19
v 384 26
v 385 13
v 386 22
v 387 1
v 388 17
v 389 19
v 390 9
v 391 18
v 392 19
v 393 24
v 394 6
v 395 8
v 396 11
v 397 10
v 398 4
v 399 10
v 400 23
v 401 3
v 402 6
v 403 8
v 404 9
v 405 7
v 406 23
v 407 5
v 408 12
v 409 28
v 410 3
v 411 0
v 412 13
v 413 9
v 414 3
v 415 0
v 416 10
v 417 15
v 418 5
v 419 6
v 420 16
v 421 11
v 422 24
v 423 23
v 424 1
v 425 2
v 426 13
v 427 2
v 428 13
v 429 0
v 430 17
v 431 8
v 432 13
v 433 3
v 434 17
v 435 5
v 436 4
v 437 5
v 438 12
v 439 6
v 440 1
v 441 12
v 442 27
v 443 6
v 444 17
v 445 16
v 446 6
v 447 16
v 448 2
v 449 29
v 450 17
